c WARNING: for repeatability, setting FPU to use double precision
d VARIABLES            54718        
d CONSTRAINTS          236427       
c ============================[ Problem Statistics ]=============================
c |                                                                             |
c |  Number of variables:         54718                                         |
c |  Number of clauses:          236427                                         |
c |  Parse time:                   0.03 s                                       |
c |                                                                             |
c ============================[ Search Statistics ]==============================
c | Conflicts |          ORIGINAL         |          LEARNT          | Progress |
c |           |    Vars  Clauses Literals |    Limit  Clauses Lit/Cl |          |
c ===============================================================================
c |       100 |   44493   207723   505290 |    76165       99     54 | 18.687 % |
c |       250 |   44493   207458   504654 |    83781      249     48 | 18.687 % |
c |       475 |   44493   207458   504654 |    92159      474     55 | 18.687 % |
c |       812 |   44493   207458   504654 |   101375      811     61 | 18.687 % |
c |      1318 |   44493   207458   504654 |   111513     1317     64 | 18.687 % |
c |      2077 |   44493   207458   504654 |   122664     2076     70 | 18.687 % |
c |      3216 |   44493   207458   504654 |   134931     3215     80 | 18.687 % |
c |      4924 |   44493   207458   504654 |   148424     4923     77 | 18.687 % |
c |      7486 |   44493   207458   504654 |   163266     7485    103 | 18.687 % |
c |     11330 |   44493   207458   504654 |   179593    11329    104 | 18.687 % |
c |     17096 |   44493   207458   504654 |   197552    17095     92 | 18.687 % |
c ===============================================================================
c restarts              : 93
c conflicts             : 25102          (7506 /sec)
c decisions             : 86047          (0.00 % random) (25730 /sec)
c propagations          : 22527699       (6736331 /sec)
c conflict literals     : 2235021        (30.38 % deleted)
d RESTARTS             93
d FAILURES             25102        
d NODES                86047        
d BACKTRACKS           86047        
d PROPAGATIONS         22527699     
d NOGOODSIZE           89.04 
d MEMORY               36.00 
d TIME                 3.34421 

s UNSATISFIABLE
